
n_res = 4;
rcap = [90, 88, 300, 264];
rtype = [1, 1, 2, 2];
n_tasks = 100;
modes =  [{1, 2, 3}, {4, 5, 6}, {7, 8, 9}, {10, 11, 12}, {13, 14, 15}, {16, 17, 18}, {19, 20, 21}, {22, 23, 24}, {25, 26, 27}, {28, 29, 30}, {31, 32, 33}, {34, 35, 36}, {37, 38, 39}, {40, 41, 42}, {43, 44, 45}, {46, 47, 48}, {49, 50, 51}, {52, 53, 54}, {55, 56, 57}, {58, 59, 60}, {61, 62, 63}, {64, 65, 66}, {67, 68, 69}, {70, 71, 72}, {73, 74, 75}, {76, 77, 78}, {79, 80, 81}, {82, 83, 84}, {85, 86, 87}, {88, 89, 90}, {91, 92, 93}, {94, 95, 96}, {97, 98, 99}, {100, 101, 102}, {103, 104, 105}, {106, 107, 108}, {109, 110, 111}, {112, 113, 114}, {115, 116, 117}, {118, 119, 120}, {121, 122, 123}, {124, 125, 126}, {127, 128, 129}, {130, 131, 132}, {133, 134, 135}, {136, 137, 138}, {139, 140, 141}, {142, 143, 144}, {145, 146, 147}, {148, 149, 150}, {151, 152, 153}, {154, 155, 156}, {157, 158, 159}, {160, 161, 162}, {163, 164, 165}, {166, 167, 168}, {169, 170, 171}, {172, 173, 174}, {175, 176, 177}, {178, 179, 180}, {181, 182, 183}, {184, 185, 186}, {187, 188, 189}, {190, 191, 192}, {193, 194, 195}, {196, 197, 198}, {199, 200, 201}, {202, 203, 204}, {205, 206, 207}, {208, 209, 210}, {211, 212, 213}, {214, 215, 216}, {217, 218, 219}, {220, 221, 222}, {223, 224, 225}, {226, 227, 228}, {229, 230, 231}, {232, 233, 234}, {235, 236, 237}, {238, 239, 240}, {241, 242, 243}, {244, 245, 246}, {247, 248, 249}, {250, 251, 252}, {253, 254, 255}, {256, 257, 258}, {259, 260, 261}, {262, 263, 264}, {265, 266, 267}, {268, 269, 270}, {271, 272, 273}, {274, 275, 276}, {277, 278, 279}, {280, 281, 282}, {283, 284, 285}, {286, 287, 288}, {289, 290, 291}, {292, 293, 294}, {295, 296, 297}, {298, 299, 300}];
succ =  [{100, 98, 75, 72, 70, 65, 63, 62, 59, 54, 50, 48, 43, 41, 38, 15}, {100, 99, 98, 96, 95, 94, 92, 76, 73, 72, 65, 63, 62, 61, 45, 43, 40, 31}, {98, 97, 87, 66, 63, 60, 58, 56, 55, 49, 48, 46, 41, 37}, {96, 95, 94, 90, 76, 73, 70, 67, 66, 63, 59, 51, 49, 48, 43, 37}, {100, 97, 93, 89, 75, 72, 63, 62, 61, 58, 56, 55, 47, 40, 39}, {99, 98, 95, 93, 73, 72, 67, 50, 43, 40, 38, 28}, {99, 98, 94, 92, 90, 85, 75, 74, 73, 70, 69, 64, 63, 62, 58, 57, 45, 43}, {97, 93, 73, 72, 70, 69, 68, 59, 57, 41, 28}, {100, 98, 96, 94, 89, 88, 83, 76, 75, 71, 66, 63, 59, 54, 52, 49, 40}, {97, 96, 94, 90, 76, 75, 72, 70, 69, 65, 62, 48, 47, 32}, {99, 96, 94, 93, 91, 90, 82, 76, 73, 62, 57, 54, 44, 43}, {99, 98, 97, 96, 95, 93, 92, 88, 86, 81, 57, 53, 42, 40}, {97, 95, 94, 93, 92, 91, 90, 87, 85, 74, 73, 72, 71, 69, 67, 65, 59, 58, 57, 47}, {99, 98, 97, 96, 94, 89, 88, 85, 84, 75, 74, 70, 69, 64, 63, 57, 50, 47}, {99, 95, 94, 93, 92, 90, 89, 87, 76, 74, 73, 71, 66, 60, 57, 52, 47}, {95, 93, 91, 90, 88, 82, 68, 64, 58, 56, 54, 43}, {99, 94, 90, 88, 83, 82, 74, 72, 71, 70, 64, 63, 58, 57, 55, 54}, {98, 95, 94, 92, 91, 90, 72, 70, 69, 68, 65, 61, 60, 47, 45}, {99, 98, 97, 96, 94, 93, 88, 87, 83, 76, 71, 63, 59, 41}, {95, 93, 92, 90, 88, 84, 73, 72, 70, 65, 63, 49, 43}, {99, 98, 94, 90, 89, 87, 85, 73, 71, 69, 64, 63, 60, 55, 47}, {98, 93, 92, 91, 87, 75, 72, 71, 69, 50, 47, 41}, {96, 94, 91, 85, 73, 71, 69, 55, 32}, {98, 95, 93, 91, 86, 83, 81, 65, 64, 60, 40}, {98, 96, 94, 93, 92, 91, 90, 89, 83, 80, 78, 72, 70, 66, 64, 60}, {96, 92, 90, 89, 88, 87, 85, 84, 83, 82, 81, 72, 64, 63, 62, 57}, {97, 94, 92, 88, 87, 85, 69, 65, 63, 62, 57, 47}, {94, 92, 90, 89, 87, 86, 85, 83, 82, 80, 78, 63, 60, 58}, {95, 93, 90, 89, 88, 75, 72, 68, 49, 47}, {99, 95, 90, 89, 84, 83, 80, 73, 70, 69, 68, 66}, {91, 90, 89, 88, 87, 86, 83, 69, 68, 59, 57}, {100, 98, 95, 93, 88, 87, 86, 84, 83, 82, 57}, {97, 96, 91, 84, 83, 82, 81, 80, 79, 70, 62}, {99, 93, 92, 87, 83, 80, 78, 72, 69, 68, 63}, {92, 88, 87, 85, 82, 81, 73, 68, 63, 57}, {98, 97, 88, 85, 84, 81, 80, 79, 70, 69, 68}, {91, 88, 84, 83, 81, 72, 68, 57}, {89, 88, 85, 84, 68, 47}, {95, 94, 90, 88, 83, 82, 79, 76, 71, 68}, {90, 85, 84, 80, 74, 70, 69, 68}, {95, 90, 89, 86, 85, 84, 82, 74, 64}, {91, 89, 87, 85, 84, 82, 80, 62}, {97, 89, 71, 47}, {95, 83, 78, 68, 60}, {93, 88, 84, 82, 80, 79, 78, 77}, {93, 80, 79, 69, 65}, {86, 83, 81, 80, 79, 78, 77}, {92, 89, 88, 85, 84, 81, 77}, {86, 85, 81, 78, 77, 69}, {90, 86, 83, 80, 78, 68}, {93, 92, 83, 78, 77, 75}, {80, 79, 78, 69, 68}, {90, 85, 84, 83, 64}, {92, 87, 85, 81, 79, 78}, {92, 81, 80, 68}, {94, 80, 77, 73}, {80, 79, 78, 77}, {96, 84, 81, 77}, {81, 80, 78, 77}, {88, 84, 79}, {85, 84, 78}, {78, 68}, {91, 77}, {79, 77}, {89, 78}, {85, 81}, {79, 78}, {77}, {82}, {87}, {81}, {86}, {78}, {79}, {79}, {81}, {}, {}, {}, {}, {}, {}, {}, {}, {}, {}, {}, {}, {}, {}, {}, {}, {}, {}, {}, {}, {}, {}, {}, {}];
n_opt = 300;
dur = [4, 7, 10, 3, 4, 7, 4, 7, 10, 4, 5, 6, 2, 3, 4, 6, 6, 7, 3, 6, 7, 1, 4, 7, 3, 4, 9, 1, 6, 10, 1, 2, 2, 4, 4, 10, 1, 6, 7, 1, 2, 5, 1, 2, 10, 6, 9, 9, 6, 9, 10, 3, 8, 9, 5, 9, 9, 4, 5, 6, 2, 3, 3, 5, 9, 9, 1, 7, 10, 2, 2, 5, 4, 6, 6, 6, 8, 8, 2, 4, 5, 1, 2, 8, 7, 10, 10, 3, 5, 10, 6, 9, 9, 6, 8, 9, 5, 6, 10, 4, 5, 8, 1, 2, 4, 6, 8, 8, 5, 8, 9, 4, 6, 9, 2, 7, 7, 7, 10, 10, 1, 6, 10, 4, 6, 7, 1, 1, 7, 2, 6, 8, 2, 6, 8, 2, 3, 9, 4, 7, 10, 2, 3, 5, 2, 8, 9, 2, 7, 10, 1, 5, 6, 2, 8, 9, 1, 3, 8, 4, 6, 6, 7, 7, 10, 3, 5, 7, 4, 6, 7, 1, 7, 7, 1, 5, 10, 5, 8, 10, 7, 9, 10, 3, 7, 9, 1, 3, 8, 1, 3, 6, 8, 9, 10, 1, 6, 10, 1, 7, 10, 5, 6, 8, 1, 3, 6, 2, 7, 10, 4, 5, 10, 1, 8, 9, 2, 6, 7, 2, 8, 9, 4, 5, 10, 4, 5, 8, 6, 8, 10, 4, 5, 7, 7, 9, 10, 4, 6, 7, 5, 9, 10, 1, 8, 8, 3, 6, 8, 1, 2, 8, 2, 3, 5, 1, 1, 9, 4, 5, 10, 1, 1, 5, 5, 9, 10, 4, 5, 8, 1, 9, 9, 2, 2, 8, 2, 4, 8, 2, 3, 5, 3, 4, 9, 4, 6, 7, 2, 3, 6, 2, 9, 10, 4, 6, 9, 1, 4, 10];
rreq = [|7, 6, 0, 0, 8, 8, 0, 0, 0, 8, 5, 5, 8, 7, 0, 0, 6, 5, 0, 9, 0, 0, 7, 7, 7, 0, 7, 0, 8, 0, 4, 0, 0, 5, 0, 2, 0, 0, 0, 5, 3, 2, 0, 7, 6, 0, 0, 0, 6, 0, 0, 9, 0, 4, 5, 5, 5, 9, 6, 6, 0, 1, 0, 0, 5, 0, 0, 4, 3, 4, 4, 0, 0, 0, 0, 0, 5, 0, 9, 4, 0, 0, 0, 1, 0, 8, 0, 0, 8, 0, 0, 0, 3, 0, 0, 3, 0, 5, 5, 0, 0, 7, 0, 0, 0, 0, 0, 2, 10, 8, 6, 8, 5, 3, 0, 0, 3, 4, 3, 0, 4, 0, 0, 0, 6, 0, 4, 0, 0, 5, 0, 0, 0, 0, 3, 3, 3, 0, 9, 0, 0, 0, 0, 5, 0, 4, 0, 10, 0, 0, 0, 7, 5, 0, 2, 2, 0, 0, 0, 0, 0, 5, 5, 4, 0, 6, 0, 2, 0, 0, 5, 10, 10, 10, 0, 4, 0, 7, 6, 0, 6, 3, 1, 5, 4, 4, 0, 6, 3, 4, 4, 4, 10, 9, 0, 8, 4, 3, 8, 0, 0, 7, 0, 0, 0, 4, 4, 3, 0, 0, 0, 4, 4, 8, 8, 0, 4, 0, 0, 0, 3, 0, 0, 0, 5, 0, 0, 0, 0, 4, 3, 0, 3, 0, 0, 4, 0, 0, 5, 3, 0, 0, 4, 9, 9, 0, 0, 0, 2, 7, 4, 0, 0, 0, 0, 10, 0, 0, 4, 0, 4, 0, 0, 0, 0, 0, 0, 0, 0, 8, 0, 3, 3, 8, 0, 4, 9, 6, 0, 0, 0, 5, 9, 0, 0, 0, 9, 0, 8, 8, 8, 3, 0, 3, 0, 0, 0, 0, 9, 9
 |0, 0, 7, 5, 0, 0, 9, 4, 4, 0, 0, 0, 0, 0, 4, 10, 0, 0, 7, 0, 6, 4, 0, 0, 0, 4, 0, 10, 0, 8, 0, 2, 2, 0, 3, 0, 3, 3, 1, 0, 0, 0, 6, 0, 0, 7, 6, 3, 0, 5, 4, 0, 8, 0, 0, 0, 0, 0, 0, 0, 8, 0, 7, 3, 0, 2, 4, 0, 0, 0, 0, 3, 5, 3, 3, 7, 0, 7, 0, 0, 3, 6, 5, 0, 9, 0, 2, 9, 0, 8, 8, 8, 0, 4, 3, 0, 5, 0, 0, 10, 7, 0, 10, 6, 3, 2, 2, 0, 0, 0, 0, 0, 0, 0, 10, 9, 0, 0, 0, 10, 0, 2, 2, 4, 0, 4, 0, 5, 3, 0, 9, 9, 7, 5, 0, 0, 0, 1, 0, 8, 8, 3, 3, 0, 7, 0, 7, 0, 6, 4, 5, 0, 0, 2, 0, 0, 4, 3, 2, 9, 5, 0, 0, 0, 4, 0, 7, 0, 2, 2, 0, 0, 0, 0, 10, 0, 8, 0, 0, 1, 0, 0, 0, 0, 0, 0, 7, 0, 0, 0, 0, 0, 0, 0, 2, 0, 0, 0, 0, 7, 6, 0, 1, 1, 10, 0, 0, 0, 7, 7, 8, 0, 0, 0, 0, 1, 0, 5, 4, 7, 0, 7, 7, 5, 0, 3, 3, 1, 3, 0, 0, 5, 0, 4, 8, 0, 2, 3, 0, 0, 2, 1, 0, 0, 0, 2, 9, 5, 0, 0, 0, 5, 6, 4, 3, 0, 5, 3, 0, 6, 0, 8, 6, 2, 9, 9, 7, 9, 8, 0, 9, 0, 0, 0, 3, 0, 0, 0, 1, 3, 2, 0, 0, 6, 2, 5, 0, 5, 0, 0, 0, 0, 5, 0, 2, 2, 2, 4, 0, 0
 |0, 7, 7, 6, 4, 0, 7, 0, 5, 0, 0, 6, 9, 0, 0, 0, 0, 1, 0, 0, 0, 8, 0, 0, 9, 8, 0, 5, 0, 2, 0, 0, 3, 9, 0, 0, 0, 0, 2, 4, 3, 2, 6, 6, 0, 6, 0, 6, 7, 6, 5, 10, 0, 3, 4, 3, 0, 3, 3, 0, 0, 6, 0, 5, 0, 4, 7, 7, 0, 7, 0, 4, 7, 0, 2, 7, 0, 0, 0, 9, 8, 7, 0, 0, 9, 8, 8, 0, 2, 0, 7, 5, 0, 3, 1, 0, 0, 0, 0, 0, 0, 0, 7, 5, 0, 0, 0, 2, 9, 8, 0, 0, 0, 0, 7, 3, 1, 0, 0, 2, 8, 0, 4, 0, 0, 6, 10, 0, 0, 8, 5, 4, 5, 0, 0, 7, 0, 2, 7, 4, 3, 0, 0, 9, 9, 3, 0, 0, 4, 0, 0, 7, 6, 6, 6, 5, 9, 0, 0, 8, 0, 5, 3, 0, 1, 0, 5, 2, 0, 0, 7, 10, 5, 0, 9, 0, 0, 6, 0, 4, 0, 3, 3, 0, 3, 0, 1, 1, 0, 7, 0, 2, 0, 7, 0, 7, 0, 5, 3, 3, 0, 0, 0, 0, 0, 7, 6, 9, 0, 0, 7, 0, 0, 5, 0, 0, 0, 5, 0, 0, 3, 2, 0, 0, 2, 0, 0, 0, 4, 0, 0, 9, 7, 0, 0, 0, 5, 0, 0, 0, 0, 6, 4, 9, 7, 3, 0, 9, 0, 0, 0, 4, 8, 8, 8, 0, 0, 7, 0, 5, 4, 0, 7, 7, 0, 2, 1, 0, 0, 3, 0, 6, 0, 3, 3, 0, 0, 0, 0, 7, 0, 4, 9, 6, 0, 0, 7, 7, 0, 5, 0, 0, 5, 0, 0, 8, 7, 0, 3, 1
 |6, 0, 0, 0, 0, 1, 0, 9, 0, 2, 2, 0, 0, 5, 4, 10, 9, 0, 4, 4, 2, 0, 2, 1, 0, 0, 4, 0, 8, 0, 3, 1, 0, 0, 4, 4, 7, 6, 0, 0, 0, 0, 0, 0, 1, 0, 7, 0, 0, 0, 0, 0, 6, 0, 0, 0, 3, 0, 0, 9, 6, 0, 4, 0, 3, 0, 0, 0, 3, 0, 4, 0, 0, 4, 0, 0, 2, 2, 6, 0, 0, 0, 5, 2, 0, 0, 0, 4, 0, 3, 0, 0, 3, 0, 0, 5, 9, 5, 2, 10, 4, 3, 0, 0, 5, 5, 4, 0, 0, 0, 6, 8, 8, 7, 0, 0, 0, 7, 7, 0, 0, 5, 0, 1, 1, 0, 0, 8, 5, 0, 0, 0, 0, 7, 7, 0, 4, 0, 0, 0, 0, 3, 2, 0, 0, 0, 8, 9, 0, 6, 5, 0, 0, 0, 0, 0, 0, 6, 5, 0, 4, 0, 0, 5, 0, 4, 0, 0, 5, 4, 0, 0, 0, 8, 0, 3, 1, 0, 3, 0, 9, 0, 0, 9, 0, 7, 0, 0, 6, 0, 2, 0, 5, 0, 1, 0, 2, 0, 0, 0, 2, 4, 4, 3, 8, 0, 0, 0, 7, 5, 0, 3, 1, 0, 8, 7, 6, 0, 6, 9, 0, 0, 9, 8, 0, 7, 4, 3, 0, 2, 2, 0, 0, 3, 7, 6, 0, 4, 4, 2, 5, 0, 0, 0, 0, 0, 8, 0, 4, 3, 1, 0, 0, 0, 0, 10, 6, 0, 6, 0, 0, 10, 0, 0, 4, 0, 0, 7, 4, 0, 6, 0, 6, 0, 0, 4, 5, 3, 3, 0, 7, 0, 0, 0, 8, 5, 0, 0, 7, 0, 6, 8, 0, 7, 6, 0, 0, 7, 0, 0|];